/* Objective function */
min: 360 x1 - 510 x2 - 450 x3;

/* Variable bounds */
360 x1 - 510 x2 - 450 x3 <= 50;
360 x1 - 510 x2 - 450 x3 >= 0;
3150 x1 + 0 x2 >= 25000;
3000 x1 + 6000 x2 + 4500 x3 <= 80000;
x2 >= 5;

//int x1;
//int x2;